c preprocessed version of SymplecticPolarGraph_4_4, 85 vertices, 850 edges
p td 85 850
0 1
0 12
0 14
0 15
0 16
0 17
0 18
0 19
0 23
0 34
0 38
0 39
0 40
0 41
0 42
0 61
0 62
0 63
0 64
0 65
1 2
1 3
1 4
1 5
1 6
1 7
1 8
1 9
1 10
1 11
1 12
1 13
1 23
1 34
1 45
1 56
1 67
1 78
1 84
2 27
2 29
2 30
2 31
2 33
2 38
2 40
2 41
2 42
2 43
2 46
2 74
2 79
2 81
2 82
2 83
3 5
3 6
3 7
3 14
3 16
3 27
3 29
3 30
3 31
3 39
3 50
3 52
3 53
3 54
3 62
3 73
3 75
3 76
3 77
4 9
4 38
4 40
4 41
4 42
4 44
4 47
4 48
4 49
4 50
4 52
4 53
4 54
4 55
4 58
4 59
4 60
5 6
5 7
5 20
5 22
5 32
5 35
5 36
5 37
5 38
5 40
5 41
5 42
5 51
5 68
5 70
5 71
5 72
5 80
6 7
6 15
6 17
6 18
6 19
6 28
6 44
6 47
6 48
6 49
6 57
6 66
6 69
6 79
6 81
6 82
6 83
7 21
7 24
7 25
7 26
7 33
7 43
7 46
7 55
7 58
7 59
7 60
7 61
7 63
7 64
7 65
7 74
8 10
8 11
8 13
8 14
8 16
8 32
8 35
8 36
8 37
8 39
8 55
8 58
8 59
8 60
8 62
8 79
8 81
8 82
8 83
9 61
9 63
9 64
9 65
9 68
9 70
9 71
9 72
9 73
9 75
9 76
9 77
9 79
9 81
9 82
9 83
10 11
10 13
10 20
10 22
10 27
10 29
10 30
10 31
10 44
10 47
10 48
10 49
10 51
10 61
10 63
10 64
10 65
10 80
11 13
11 21
11 24
11 25
11 26
11 28
11 38
11 40
11 41
11 42
11 57
11 66
11 69
11 73
11 75
11 76
11 77
12 20
12 21
12 22
12 23
12 24
12 25
12 26
12 34
12 50
12 51
12 52
12 53
12 54
12 79
12 80
12 81
12 82
12 83
13 15
13 17
13 18
13 19
13 33
13 43
13 46
13 50
13 52
13 53
13 54
13 68
13 70
13 71
13 72
13 74
14 15
14 20
14 21
14 27
14 32
14 38
14 43
14 44
14 50
14 55
14 61
14 66
14 68
14 73
14 79
15 22
15 24
15 30
15 37
15 38
15 46
15 47
15 53
15 60
15 61
15 69
15 70
15 76
15 83
16 17
16 22
16 24
16 28
16 29
16 33
16 35
16 41
16 48
16 53
16 59
16 65
16 72
16 77
16 83
17 20
17 21
17 31
17 36
17 41
17 49
17 50
17 57
17 58
17 65
17 71
17 74
17 75
17 79
18 26
18 27
18 33
18 35
18 42
18 48
18 51
18 52
18 55
18 62
18 63
18 66
18 68
18 77
18 82
19 25
19 28
19 29
19 32
19 39
19 40
19 43
19 44
19 54
19 59
19 64
19 72
19 73
19 80
19 81
20 24
20 29
20 35
20 40
20 43
20 47
20 52
20 58
20 63
20 66
20 70
20 75
20 81
21 22
21 31
21 36
21 40
21 44
21 46
21 54
21 59
21 63
21 68
21 69
21 77
21 82
22 27
22 28
22 32
22 33
22 42
22 49
22 54
22 60
22 64
22 71
22 76
22 82
23 27
23 28
23 29
23 30
23 31
23 34
23 55
23 57
23 58
23 59
23 60
23 66
23 68
23 69
23 70
23 71
23 72
24 30
24 37
24 42
24 48
24 52
24 55
24 57
24 64
24 72
24 73
24 74
24 81
25 29
25 32
25 33
25 41
25 49
25 50
25 51
25 58
25 61
25 62
25 66
25 70
25 76
25 83
26 27
26 28
26 35
26 38
26 39
26 43
26 47
26 53
26 60
26 65
26 71
26 75
26 79
26 80
27 35
27 41
27 46
27 49
27 50
27 58
27 64
27 69
27 72
27 73
27 81
28 31
28 33
28 37
28 38
28 44
28 50
28 55
28 63
28 70
28 75
28 81
29 32
29 38
29 47
29 53
29 57
29 60
29 63
29 68
29 74
29 77
29 82
30 33
30 37
30 40
30 44
30 51
30 54
30 59
30 62
30 65
30 66
30 71
30 75
30 79
31 36
31 39
31 42
31 43
31 48
31 52
31 55
31 61
31 70
31 76
31 80
31 83
32 42
32 46
32 48
32 52
32 55
32 65
32 69
32 71
32 75
32 79
33 36
33 40
33 47
33 52
33 58
33 61
33 68
33 73
33 79
34 32
34 33
34 35
34 36
34 37
34 43
34 44
34 46
34 47
34 48
34 49
34 73
34 74
34 75
34 76
34 77
35 40
35 44
35 54
35 57
35 59
35 61
35 70
35 74
35 76
35 83
36 38
36 47
36 51
36 53
36 60
36 62
36 64
36 66
36 72
36 73
36 81
37 39
37 41
37 43
37 49
37 50
37 58
37 63
37 68
37 77
37 80
37 82
38 49
38 51
38 52
38 59
38 61
38 72
38 74
38 75
38 82
39 40
39 46
39 47
39 51
39 52
39 57
39 58
39 64
39 71
39 76
39 82
40 48
40 50
40 60
40 64
40 69
40 70
40 77
40 79
41 46
41 47
41 54
41 55
41 65
41 66
41 68
41 76
41 80
41 81
42 43
42 44
42 53
42 57
42 58
42 62
42 63
42 71
42 73
42 83
43 49
43 54
43 60
43 65
43 66
43 72
43 77
43 83
44 51
44 53
44 58
44 65
44 68
44 74
44 76
44 81
45 4
45 9
45 14
45 16
45 20
45 22
45 28
45 33
45 39
45 43
45 46
45 51
45 57
45 62
45 66
45 67
45 69
45 74
45 80
46 48
46 51
46 53
46 57
46 59
46 63
46 70
46 75
46 81
47 54
47 55
47 63
47 69
47 71
47 73
47 83
48 50
48 60
48 61
48 66
48 72
48 75
48 80
48 82
49 52
49 57
49 59
49 62
49 64
49 70
49 77
49 79
50 51
50 60
50 63
50 71
50 73
50 74
50 83
51 55
51 57
51 65
51 72
51 77
51 83
52 59
52 65
52 68
52 69
52 76
52 81
53 58
53 64
53 66
53 70
53 77
53 79
53 80
54 55
54 57
54 61
54 62
54 72
54 75
54 82
55 64
55 70
55 74
55 77
55 79
56 2
56 14
56 16
56 21
56 24
56 25
56 26
56 39
56 44
56 47
56 48
56 49
56 62
56 68
56 70
56 71
56 72
56 78
56 84
57 60
57 61
57 68
57 73
57 79
58 61
58 69
58 72
58 75
58 82
59 63
59 66
59 71
59 73
59 80
59 83
60 62
60 65
60 68
60 76
60 81
61 71
61 77
61 80
61 81
62 63
62 69
62 70
62 74
62 75
62 80
62 81
63 72
63 76
63 79
64 66
64 68
64 74
64 75
64 83
65 69
65 70
65 73
65 82
66 71
66 76
66 82
67 4
67 9
67 15
67 17
67 18
67 19
67 21
67 24
67 25
67 26
67 27
67 29
67 30
67 31
67 32
67 35
67 36
67 37
68 75
68 80
68 83
69 72
69 74
69 77
69 80
69 83
70 73
70 82
71 74
71 77
71 81
72 76
72 79
73 80
73 82
74 76
74 80
74 82
75 83
76 79
77 81
78 2
78 15
78 17
78 18
78 19
78 20
78 22
78 51
78 55
78 58
78 59
78 60
78 73
78 75
78 76
78 77
78 80
78 84
79 80
84 2
84 28
84 32
84 35
84 36
84 37
84 50
84 52
84 53
84 54
84 57
84 61
84 63
84 64
84 65
84 66
84 69
